NAME : 10_3_3_2_(05).dat
COMMENT : Henke, Speranza, Wäscher, 2015
TYPE : MCVRP
DIMENSION : 11
EDGE_WEIGHT_TYPE : DISTANCE_MATRIX
CAPACITY : 1000
VEHICLES : 2
PRODUCT TYPES : 3
COMPARTMENTS : 3
NODE_COORD_SECTION
1 50 50
2 58.11 12.15
3 15.98 15.17
4 96.28 25.35
5 27.2 82.67
6 40.21 4.55
7 93.42 32.72
8 84.91 75.47
9 20.04 88.45
10 89.85 13.9
11 25.47 8.72
DEMAND_SECTION
1 0 0 0
2 123 84 0
3 101 31 0
4 143 54 0
5 126 7 0
6 14 61 0
7 0 33 21
8 90 75 0
9 0 48 74
10 99 0 91
11 0 25 91
DEPOT_SECTION
1
EOF